c generated by ezSAT
p cnf 7 13
   1           0
  -2           0
   1           0
   4  -3   5   0
  -5  -4       0
  -5   3       0
   3  -4   6   0
  -6  -3       0
  -6   4       0
   5   6  -7   0
   7  -5       0
   7  -6       0
   7           0
